webassembly/ejemplos_dzn/14/folder14_json_89.dzn
TERM = { '.', 's(2)', 's(5)', 's(4)', 'in_1', 'local_0', 'local_1', 'in_6', 'in_2', 'in_4', 'in_3', 's(6)', 's(1)', 's(0)', 's(7)', 'in_5', 's(3)', 'in_0'};
null = '.';
s = 14;
n = 12;
ndeps = 4;
max_registers_sz = 5;
NR = 2;
registers = [|'local_0', 's(7)', |'local_1', 's(4)'|];
dependencies = [|'i32.load16_s_1', 'i32.store8_11', |'i32.store8_11', 'i32.load16_u_12', |'i32.store8_11', 'i32.load16_u_13', |'i32.load_2', 'i32.store8_11'|];
GET_ENUM = { GET1, GET2, GET3, GET4, GET5, GET6, GET7};
SET_ENUM = { SET1, SET2, SET3, SET4, SET5, SET6, SET7};
TEE_ENUM = { TEE1, TEE2, TEE3, TEE4, TEE5, TEE6, TEE7};
N = 9;
OP = { 'i32.load16_s_1', 'i32.load_2', 'i32.store8_11', 'i32.load16_u_12', 'i32.load16_u_13', 'i32.const_0', 'i32.add_0', 'i32.sub_0', 'i32.sub_1' };
in_ops = [1, 1, 2, 1, 1, 0, 2, 2, 2 ];
out_ops = [1, 1, 0, 1, 1, 1, 1, 1, 1 ];
in1 = ['in_1', 's(0)', 'in_4', 'in_6', 's(5)', '.', 's(1)', 's(2)', 'local_0' ];
in2 = ['.', '.', 'in_5', '.', '.', '.', 'in_2', 'in_3', 's(3)' ];
in3 = ['.', '.', '.', '.', '.', '.', '.', '.', '.' ];
out1 = ['s(0)', 's(1)', '.', 's(5)', 's(6)', 's(7)', 's(2)', 's(3)', 's(4)' ];
out2 = ['.', '.', '.', '.', '.', '.', '.', '.', '.' ];
out3 = ['.', '.', '.', '.', '.', '.', '.', '.', '.' ];
comm = [false, false, false, false, false, false, true, false, false ];
gas = [1, 1, 1, 1, 1, 1, 1, 1, 1 ];
sz = [1, 1, 1, 1, 1, 1, 1, 1, 1 ];
stor = [false, false, true, false, false, false, false, false, false ];
lb = [ 1, 1, 1, 1, 1, 1, 1, 1, 1 ];
ub = [ 14, 14, 14, 14, 14, 14, 14, 14, 14 ];
startstack = [ 'in_0', 'in_1', 'in_2', 'in_3', 'in_4', 'in_5', 'in_6', null, null, null, null, null ];
endstack = [ 's(6)', null, null, null, null, null, null, null, null, null, null, null ];
